log             ${name}_npt_nemd.log

units           real
atom_style      full

# Define force fields (these need to be adapted based on your system)
pair_style      lj/cut/coul/long 12.0  12.0
kspace_style    pppm 1e-6
bond_style      harmonic
angle_style     harmonic
dihedral_style  fourier
improper_style  cvff
special_bonds   amber
pair_modify     mix arithmetic

# Read the system data
read_data 		../../OPTIMIZATION/${name}/${name}_eq2.data 

# Define the timestep
timestep        1.0

# Neighbor settings
neighbor        2.5 bin
#neigh_modify    delay 0 every 50 check no
neigh_modify 	delay 0 every 1 check yes

fix				SHAKE2 all shake 1e-4 1000 0 m 1.0


# Apply NPT ensemble (isotropic pressure)
fix 1 all npt temp 290.0 290.0 $(100.0*dt) iso 1.0 1.0 $(1000.0*dt)  # Adjust temperature and pressure as needed

run 1000000
unfix  1

reset_timestep  0
fix 2 all npt temp 290.0 310.0 $(100.0*dt) iso 1.0 1.0 $(1000.0*dt)  # Adjust temperature and pressure as needed

variable volume equal vol
variable temperature equal temp
variable energy equal etotal
variable pressure equal press
variable dens equal density


fix propertiesPrint all print 100 "${temperature} ${energy} ${pressure} ${volume} ${dens}" file ${name}_npt_nemd_properties.dat  screen no



# Output thermodynamic information
thermo_style custom step temp pe ke etotal press vol lx ly lz

thermo 1000

# Run the NPT simulation
run 10000000
clear