log log.elastic_T
####################################
# 1st stage equilibration
####################################
units		real
atom_style	full
boundary	p p p

bond_style		harmonic  
angle_style		harmonic
dihedral_style	fourier
improper_style	cvff

pair_style		lj/cut/coul/long 8.0 12.0
pair_modify		mix arithmetic
special_bonds	amber
neighbor		3.0 bin
neigh_modify	delay 0 every 1
kspace_style	pppm 1e-6


read_data       ../../OPTIMIZATION/${name}/${name}_eq2.data

fix				SHAKE3 all shake 1e-4 1000 0 m 1.0

fix				NPT all npt temp 300 300 100 iso 1.0 1.0 1000


variable volume equal vol
variable temperature equal temp
variable energy equal etotal
variable pressure equal press
variable dens equal density


fix propertiesPrint all print 100 "${temperature} ${energy} ${pressure} ${volume} ${dens}" file ${name}_npt_properties.dat  screen no



run				5000000 
unfix			NPT
unfix			propertiesPrint
unfix			SHAKE3
clear
